16911
17931
17932
17933
17934
17935
17936
17937
17938
17939
17940
17941
17942
17943
17944
17812
17813
17945
17946
17947
17948
17949
17950
17951
17952
17953
17954
17955
17956
17957
17958
17959
17960
17961
17962
17963
17964
17965
17966
17967
17968
17969
16915
16916
16918
16917
17973
17972
17971
17970
17817
17974
17975
17976
17977
17978
17979
17980
17981
17982
17983
17984
17985
17986
17987
17988
17989
17990
17991
17992
17993
17994
17995
17996
17997
17998
17999
18000
18001
18002
18003
18004
18005
18006
18007
18008
18009
18010
18011
18012
18013
18014
18015
18016
18017
18018
18019
18020
18021
18022
18023
18024
18025
18026
18027
16923
16921
16919
16920
16922
16924
16926
16925
16928
16927
16929
16930
16992
16991
18083
18084
18085
18086
18087
17833
17835
18088
18089
18090
18091
18092
18093
18094
18095
18096
18097
18098
18099
18100
18101
17838
17836
17837
17832
17830
17829
17831
18082
18081
18080
18079
18078
18077
18076
18075
18074
18073
18072
18071
18070
18069
18068
18067
18066
18065
17827
18064
18063
18062
18061
18060
18059
18058
18057
18056
18055
18054
18053
18052
18051
18050
18049
17825
18048
18047
18046
18045
18044
18043
18042
18041
18040
18039
18038
18037
18036
18035
18034
18033
18032
18031
18030
18029
18028
17822
17823
17818
17814
17811
17807
17806
17803
17802
17801
17799
17902
17901
17900
17899
17898
17897
17896
17895
17894
17893
17892
17891
17890
17797
17889
17888
17887
17886
17885
17884
17883
17882
17795
17881
17880
17879
17794
17789
17788
17860
17859
17858
17857
17856
17855
17854
17853
17852
17851
17786
17850
17849
17848
17847
17846
17845
17844
17843
17842
17841
17840
17839
17026
17025
17027
17028
17861
17862
17863
17864
17791
17790
17792
17865
17866
17867
17868
17869
17870
17871
17872
17873
17874
17875
17876
17877
17878
17030
17029
17031
17032
17033
17034
17903
17904
17905
17906
17907
17908
17909
17910
17911
17912
17913
17914
17915
17916
17917
17918
17919
17920
17805
17808
17809
17930
17929
17928
17927
17926
17925
17924
17923
17922
17921
17036
17035
16912
16914
16913
